p cnf 767 2307
7 16 0 
-7 -16 0 
25 34 0 
-25 -34 0 
86 88 0 
-86 -88 0 
94 96 0 
-94 -96 0 
-7 -568 138 0 
-7 -568 -138 0 
-138 -569 147 0 
-138 -569 -147 0 
-147 -570 156 0 
-147 -570 -156 0 
-156 -571 165 0 
-156 -571 -165 0 
-165 -572 174 0 
-165 -572 -174 0 
-7 -573 175 0 
-7 -573 -138 0 
-138 -574 184 0 
-138 -574 -147 0 
-147 -575 193 0 
-147 -575 -156 0 
-156 -576 202 0 
-156 -576 -165 0 
-165 -577 211 0 
-165 -577 -174 0 
-16 -578 138 0 
-16 -578 -175 0 
-175 -579 147 0 
-175 -579 -184 0 
-184 -580 156 0 
-184 -580 -193 0 
-193 -581 165 0 
-193 -581 -202 0 
-202 -582 174 0 
-202 -582 -211 0 
-16 -583 175 0 
-16 -583 -175 0 
-175 -584 184 0 
-175 -584 -184 0 
-184 -585 193 0 
-184 -585 -193 0 
-193 -586 202 0 
-193 -586 -202 0 
-202 -587 211 0 
-202 -587 -211 0 
-25 -588 212 0 
-25 -588 -212 0 
-212 -589 221 0 
-212 -589 -221 0 
-221 -590 230 0 
-221 -590 -230 0 
-230 -591 239 0 
-230 -591 -239 0 
-239 -592 248 0 
-239 -592 -248 0 
-25 -593 249 0 
-25 -593 -212 0 
-212 -594 258 0 
-212 -594 -221 0 
-221 -595 267 0 
-221 -595 -230 0 
-230 -596 276 0 
-230 -596 -239 0 
-239 -597 285 0 
-239 -597 -248 0 
-34 -598 212 0 
-34 -598 -249 0 
-249 -599 221 0 
-249 -599 -258 0 
-258 -600 230 0 
-258 -600 -267 0 
-267 -601 239 0 
-267 -601 -276 0 
-276 -602 248 0 
-276 -602 -285 0 
-34 -603 249 0 
-34 -603 -249 0 
-249 -604 258 0 
-249 -604 -258 0 
-258 -605 267 0 
-258 -605 -267 0 
-267 -606 276 0 
-267 -606 -276 0 
-276 -607 285 0 
-276 -607 -285 0 
-7 -608 138 0 
-7 -608 -138 0 
-138 -609 147 0 
-138 -609 -147 0 
-147 -610 156 0 
-147 -610 -156 0 
-156 -611 165 0 
-156 -611 -165 0 
-165 -612 174 0 
-165 -612 -174 0 
-7 -613 175 0 
-7 -613 -138 0 
-138 -614 184 0 
-138 -614 -147 0 
-147 -615 193 0 
-147 -615 -156 0 
-156 -616 202 0 
-156 -616 -165 0 
-165 -617 211 0 
-165 -617 -174 0 
-16 -618 138 0 
-16 -618 -175 0 
-175 -619 147 0 
-175 -619 -184 0 
-184 -620 156 0 
-184 -620 -193 0 
-193 -621 165 0 
-193 -621 -202 0 
-202 -622 174 0 
-202 -622 -211 0 
-16 -623 175 0 
-16 -623 -175 0 
-175 -624 184 0 
-175 -624 -184 0 
-184 -625 193 0 
-184 -625 -193 0 
-193 -626 202 0 
-193 -626 -202 0 
-202 -627 211 0 
-202 -627 -211 0 
-25 -628 212 0 
-25 -628 -212 0 
-212 -629 221 0 
-212 -629 -221 0 
-221 -630 230 0 
-221 -630 -230 0 
-230 -631 239 0 
-230 -631 -239 0 
-239 -632 248 0 
-239 -632 -248 0 
-25 -633 249 0 
-25 -633 -212 0 
-212 -634 258 0 
-212 -634 -221 0 
-221 -635 267 0 
-221 -635 -230 0 
-230 -636 276 0 
-230 -636 -239 0 
-239 -637 285 0 
-239 -637 -248 0 
-34 -638 212 0 
-34 -638 -249 0 
-249 -639 221 0 
-249 -639 -258 0 
-258 -640 230 0 
-258 -640 -267 0 
-267 -641 239 0 
-267 -641 -276 0 
-276 -642 248 0 
-276 -642 -285 0 
-34 -643 249 0 
-34 -643 -249 0 
-249 -644 258 0 
-249 -644 -258 0 
-258 -645 267 0 
-258 -645 -267 0 
-267 -646 276 0 
-267 -646 -276 0 
-276 -647 285 0 
-276 -647 -285 0 
-7 -648 380 0 
-7 -648 -286 0 
-138 -649 389 0 
-138 -649 -291 0 
-147 -650 398 0 
-147 -650 -296 0 
-156 -651 407 0 
-156 -651 -301 0 
-165 -652 416 0 
-165 -652 -306 0 
-7 -653 380 0 
-7 -653 -307 0 
-138 -654 389 0 
-138 -654 -312 0 
-147 -655 398 0 
-147 -655 -317 0 
-156 -656 407 0 
-156 -656 -322 0 
-165 -657 416 0 
-165 -657 -327 0 
-16 -658 380 0 
-16 -658 -328 0 
-175 -659 389 0 
-175 -659 -333 0 
-184 -660 398 0 
-184 -660 -338 0 
-193 -661 407 0 
-193 -661 -343 0 
-202 -662 416 0 
-202 -662 -348 0 
-16 -663 380 0 
-16 -663 -349 0 
-175 -664 389 0 
-175 -664 -354 0 
-184 -665 398 0 
-184 -665 -359 0 
-193 -666 407 0 
-193 -666 -364 0 
-202 -667 416 0 
-202 -667 -369 0 
-25 -668 417 0 
-25 -668 -286 0 
-212 -669 426 0 
-212 -669 -291 0 
-221 -670 435 0 
-221 -670 -296 0 
-230 -671 444 0 
-230 -671 -301 0 
-239 -672 453 0 
-239 -672 -306 0 
-25 -673 417 0 
-25 -673 -307 0 
-212 -674 426 0 
-212 -674 -312 0 
-221 -675 435 0 
-221 -675 -317 0 
-230 -676 444 0 
-230 -676 -322 0 
-239 -677 453 0 
-239 -677 -327 0 
-34 -678 417 0 
-34 -678 -328 0 
-249 -679 426 0 
-249 -679 -333 0 
-258 -680 435 0 
-258 -680 -338 0 
-267 -681 444 0 
-267 -681 -343 0 
-276 -682 453 0 
-276 -682 -348 0 
-34 -683 417 0 
-34 -683 -349 0 
-249 -684 426 0 
-249 -684 -354 0 
-258 -685 435 0 
-258 -685 -359 0 
-267 -686 444 0 
-267 -686 -364 0 
-276 -687 453 0 
-276 -687 -369 0 
-7 -688 286 0 
-7 -688 -380 0 
-138 -689 291 0 
-138 -689 -389 0 
-147 -690 296 0 
-147 -690 -398 0 
-156 -691 301 0 
-156 -691 -407 0 
-165 -692 306 0 
-165 -692 -416 0 
-7 -693 307 0 
-7 -693 -380 0 
-138 -694 312 0 
-138 -694 -389 0 
-147 -695 317 0 
-147 -695 -398 0 
-156 -696 322 0 
-156 -696 -407 0 
-165 -697 327 0 
-165 -697 -416 0 
-16 -698 328 0 
-16 -698 -380 0 
-175 -699 333 0 
-175 -699 -389 0 
-184 -700 338 0 
-184 -700 -398 0 
-193 -701 343 0 
-193 -701 -407 0 
-202 -702 348 0 
-202 -702 -416 0 
-16 -703 349 0 
-16 -703 -380 0 
-175 -704 354 0 
-175 -704 -389 0 
-184 -705 359 0 
-184 -705 -398 0 
-193 -706 364 0 
-193 -706 -407 0 
-202 -707 369 0 
-202 -707 -416 0 
-25 -708 286 0 
-25 -708 -417 0 
-212 -709 291 0 
-212 -709 -426 0 
-221 -710 296 0 
-221 -710 -435 0 
-230 -711 301 0 
-230 -711 -444 0 
-239 -712 306 0 
-239 -712 -453 0 
-25 -713 307 0 
-25 -713 -417 0 
-212 -714 312 0 
-212 -714 -426 0 
-221 -715 317 0 
-221 -715 -435 0 
-230 -716 322 0 
-230 -716 -444 0 
-239 -717 327 0 
-239 -717 -453 0 
-34 -718 328 0 
-34 -718 -417 0 
-249 -719 333 0 
-249 -719 -426 0 
-258 -720 338 0 
-258 -720 -435 0 
-267 -721 343 0 
-267 -721 -444 0 
-276 -722 348 0 
-276 -722 -453 0 
-34 -723 349 0 
-34 -723 -417 0 
-249 -724 354 0 
-249 -724 -426 0 
-258 -725 359 0 
-258 -725 -435 0 
-267 -726 364 0 
-267 -726 -444 0 
-276 -727 369 0 
-276 -727 -453 0 
-82 -728 526 0 
-82 -728 -454 0 
-454 -729 531 0 
-454 -729 -456 0 
-456 -730 536 0 
-456 -730 -458 0 
-458 -731 541 0 
-458 -731 -460 0 
-460 -732 546 0 
-460 -732 -462 0 
-84 -733 526 0 
-84 -733 -463 0 
-463 -734 531 0 
-463 -734 -465 0 
-465 -735 536 0 
-465 -735 -467 0 
-467 -736 541 0 
-467 -736 -469 0 
-469 -737 546 0 
-469 -737 -471 0 
-86 -738 526 0 
-86 -738 -472 0 
-472 -739 531 0 
-472 -739 -474 0 
-474 -740 536 0 
-474 -740 -476 0 
-476 -741 541 0 
-476 -741 -478 0 
-478 -742 546 0 
-478 -742 -480 0 
-88 -743 526 0 
-88 -743 -481 0 
-481 -744 531 0 
-481 -744 -483 0 
-483 -745 536 0 
-483 -745 -485 0 
-485 -746 541 0 
-485 -746 -487 0 
-487 -747 546 0 
-487 -747 -489 0 
-90 -748 547 0 
-90 -748 -490 0 
-490 -749 552 0 
-490 -749 -492 0 
-492 -750 557 0 
-492 -750 -494 0 
-494 -751 562 0 
-494 -751 -496 0 
-496 -752 567 0 
-496 -752 -498 0 
-92 -753 547 0 
-92 -753 -499 0 
-499 -754 552 0 
-499 -754 -501 0 
-501 -755 557 0 
-501 -755 -503 0 
-503 -756 562 0 
-503 -756 -505 0 
-505 -757 567 0 
-505 -757 -507 0 
-94 -758 547 0 
-94 -758 -508 0 
-508 -759 552 0 
-508 -759 -510 0 
-510 -760 557 0 
-510 -760 -512 0 
-512 -761 562 0 
-512 -761 -514 0 
-514 -762 567 0 
-514 -762 -516 0 
-96 -763 547 0 
-96 -763 -517 0 
-517 -764 552 0 
-517 -764 -519 0 
-519 -765 557 0 
-519 -765 -521 0 
-521 -766 562 0 
-521 -766 -523 0 
-523 -767 567 0 
-523 -767 -525 0 
-1 108 0 
1 -108 0 
-108 109 0 
108 -109 0 
-109 110 0 
109 -110 0 
-110 111 0 
110 -111 0 
-111 112 0 
111 -112 0 
-2 113 0 
2 -113 0 
-113 114 0 
113 -114 0 
-114 115 0 
114 -115 0 
-115 116 0 
115 -116 0 
-116 117 0 
116 -117 0 
-3 118 0 
3 -118 0 
-118 119 0 
118 -119 0 
-119 120 0 
119 -120 0 
-120 121 0 
120 -121 0 
-121 122 0 
121 -122 0 
-4 123 0 
4 -123 0 
-123 124 0 
123 -124 0 
-124 125 0 
124 -125 0 
-125 126 0 
125 -126 0 
-126 127 0 
126 -127 0 
-5 128 0 
5 -128 0 
-128 129 0 
128 -129 0 
-129 130 0 
129 -130 0 
-130 131 0 
130 -131 0 
-131 132 0 
131 -132 0 
-6 133 0 
6 -133 0 
-133 134 0 
133 -134 0 
-134 135 0 
134 -135 0 
-135 136 0 
135 -136 0 
-136 137 0 
136 -137 0 
-7 -568 8 0 
-8 7 0 
-8 568 0 
-7 -573 9 0 
-9 7 0 
-9 573 0 
-7 -608 10 0 
-10 7 0 
-10 608 0 
-7 -613 11 0 
-11 7 0 
-11 613 0 
8 9 10 11 -7 138 0 
-7 -568 12 0 
-12 7 0 
-12 568 0 
-16 -578 13 0 
-13 16 0 
-13 578 0 
-7 -608 14 0 
-14 7 0 
-14 608 0 
-16 -618 15 0 
-15 16 0 
-15 618 0 
12 13 14 15 7 -138 0 
-138 -569 139 0 
-139 138 0 
-139 569 0 
-138 -574 140 0 
-140 138 0 
-140 574 0 
-138 -609 141 0 
-141 138 0 
-141 609 0 
-138 -614 142 0 
-142 138 0 
-142 614 0 
139 140 141 142 -138 147 0 
-138 -569 143 0 
-143 138 0 
-143 569 0 
-175 -579 144 0 
-144 175 0 
-144 579 0 
-138 -609 145 0 
-145 138 0 
-145 609 0 
-175 -619 146 0 
-146 175 0 
-146 619 0 
143 144 145 146 138 -147 0 
-147 -570 148 0 
-148 147 0 
-148 570 0 
-147 -575 149 0 
-149 147 0 
-149 575 0 
-147 -610 150 0 
-150 147 0 
-150 610 0 
-147 -615 151 0 
-151 147 0 
-151 615 0 
148 149 150 151 -147 156 0 
-147 -570 152 0 
-152 147 0 
-152 570 0 
-184 -580 153 0 
-153 184 0 
-153 580 0 
-147 -610 154 0 
-154 147 0 
-154 610 0 
-184 -620 155 0 
-155 184 0 
-155 620 0 
152 153 154 155 147 -156 0 
-156 -571 157 0 
-157 156 0 
-157 571 0 
-156 -576 158 0 
-158 156 0 
-158 576 0 
-156 -611 159 0 
-159 156 0 
-159 611 0 
-156 -616 160 0 
-160 156 0 
-160 616 0 
157 158 159 160 -156 165 0 
-156 -571 161 0 
-161 156 0 
-161 571 0 
-193 -581 162 0 
-162 193 0 
-162 581 0 
-156 -611 163 0 
-163 156 0 
-163 611 0 
-193 -621 164 0 
-164 193 0 
-164 621 0 
161 162 163 164 156 -165 0 
-165 -572 166 0 
-166 165 0 
-166 572 0 
-165 -577 167 0 
-167 165 0 
-167 577 0 
-165 -612 168 0 
-168 165 0 
-168 612 0 
-165 -617 169 0 
-169 165 0 
-169 617 0 
166 167 168 169 -165 174 0 
-165 -572 170 0 
-170 165 0 
-170 572 0 
-202 -582 171 0 
-171 202 0 
-171 582 0 
-165 -612 172 0 
-172 165 0 
-172 612 0 
-202 -622 173 0 
-173 202 0 
-173 622 0 
170 171 172 173 165 -174 0 
-16 -578 17 0 
-17 16 0 
-17 578 0 
-16 -583 18 0 
-18 16 0 
-18 583 0 
-16 -618 19 0 
-19 16 0 
-19 618 0 
-16 -623 20 0 
-20 16 0 
-20 623 0 
17 18 19 20 -16 175 0 
-7 -573 21 0 
-21 7 0 
-21 573 0 
-16 -583 22 0 
-22 16 0 
-22 583 0 
-7 -613 23 0 
-23 7 0 
-23 613 0 
-16 -623 24 0 
-24 16 0 
-24 623 0 
21 22 23 24 16 -175 0 
-175 -579 176 0 
-176 175 0 
-176 579 0 
-175 -584 177 0 
-177 175 0 
-177 584 0 
-175 -619 178 0 
-178 175 0 
-178 619 0 
-175 -624 179 0 
-179 175 0 
-179 624 0 
176 177 178 179 -175 184 0 
-138 -574 180 0 
-180 138 0 
-180 574 0 
-175 -584 181 0 
-181 175 0 
-181 584 0 
-138 -614 182 0 
-182 138 0 
-182 614 0 
-175 -624 183 0 
-183 175 0 
-183 624 0 
180 181 182 183 175 -184 0 
-184 -580 185 0 
-185 184 0 
-185 580 0 
-184 -585 186 0 
-186 184 0 
-186 585 0 
-184 -620 187 0 
-187 184 0 
-187 620 0 
-184 -625 188 0 
-188 184 0 
-188 625 0 
185 186 187 188 -184 193 0 
-147 -575 189 0 
-189 147 0 
-189 575 0 
-184 -585 190 0 
-190 184 0 
-190 585 0 
-147 -615 191 0 
-191 147 0 
-191 615 0 
-184 -625 192 0 
-192 184 0 
-192 625 0 
189 190 191 192 184 -193 0 
-193 -581 194 0 
-194 193 0 
-194 581 0 
-193 -586 195 0 
-195 193 0 
-195 586 0 
-193 -621 196 0 
-196 193 0 
-196 621 0 
-193 -626 197 0 
-197 193 0 
-197 626 0 
194 195 196 197 -193 202 0 
-156 -576 198 0 
-198 156 0 
-198 576 0 
-193 -586 199 0 
-199 193 0 
-199 586 0 
-156 -616 200 0 
-200 156 0 
-200 616 0 
-193 -626 201 0 
-201 193 0 
-201 626 0 
198 199 200 201 193 -202 0 
-202 -582 203 0 
-203 202 0 
-203 582 0 
-202 -587 204 0 
-204 202 0 
-204 587 0 
-202 -622 205 0 
-205 202 0 
-205 622 0 
-202 -627 206 0 
-206 202 0 
-206 627 0 
203 204 205 206 -202 211 0 
-165 -577 207 0 
-207 165 0 
-207 577 0 
-202 -587 208 0 
-208 202 0 
-208 587 0 
-165 -617 209 0 
-209 165 0 
-209 617 0 
-202 -627 210 0 
-210 202 0 
-210 627 0 
207 208 209 210 202 -211 0 
-25 -588 26 0 
-26 25 0 
-26 588 0 
-25 -593 27 0 
-27 25 0 
-27 593 0 
-25 -628 28 0 
-28 25 0 
-28 628 0 
-25 -633 29 0 
-29 25 0 
-29 633 0 
26 27 28 29 -25 212 0 
-25 -588 30 0 
-30 25 0 
-30 588 0 
-34 -598 31 0 
-31 34 0 
-31 598 0 
-25 -628 32 0 
-32 25 0 
-32 628 0 
-34 -638 33 0 
-33 34 0 
-33 638 0 
30 31 32 33 25 -212 0 
-212 -589 213 0 
-213 212 0 
-213 589 0 
-212 -594 214 0 
-214 212 0 
-214 594 0 
-212 -629 215 0 
-215 212 0 
-215 629 0 
-212 -634 216 0 
-216 212 0 
-216 634 0 
213 214 215 216 -212 221 0 
-212 -589 217 0 
-217 212 0 
-217 589 0 
-249 -599 218 0 
-218 249 0 
-218 599 0 
-212 -629 219 0 
-219 212 0 
-219 629 0 
-249 -639 220 0 
-220 249 0 
-220 639 0 
217 218 219 220 212 -221 0 
-221 -590 222 0 
-222 221 0 
-222 590 0 
-221 -595 223 0 
-223 221 0 
-223 595 0 
-221 -630 224 0 
-224 221 0 
-224 630 0 
-221 -635 225 0 
-225 221 0 
-225 635 0 
222 223 224 225 -221 230 0 
-221 -590 226 0 
-226 221 0 
-226 590 0 
-258 -600 227 0 
-227 258 0 
-227 600 0 
-221 -630 228 0 
-228 221 0 
-228 630 0 
-258 -640 229 0 
-229 258 0 
-229 640 0 
226 227 228 229 221 -230 0 
-230 -591 231 0 
-231 230 0 
-231 591 0 
-230 -596 232 0 
-232 230 0 
-232 596 0 
-230 -631 233 0 
-233 230 0 
-233 631 0 
-230 -636 234 0 
-234 230 0 
-234 636 0 
231 232 233 234 -230 239 0 
-230 -591 235 0 
-235 230 0 
-235 591 0 
-267 -601 236 0 
-236 267 0 
-236 601 0 
-230 -631 237 0 
-237 230 0 
-237 631 0 
-267 -641 238 0 
-238 267 0 
-238 641 0 
235 236 237 238 230 -239 0 
-239 -592 240 0 
-240 239 0 
-240 592 0 
-239 -597 241 0 
-241 239 0 
-241 597 0 
-239 -632 242 0 
-242 239 0 
-242 632 0 
-239 -637 243 0 
-243 239 0 
-243 637 0 
240 241 242 243 -239 248 0 
-239 -592 244 0 
-244 239 0 
-244 592 0 
-276 -602 245 0 
-245 276 0 
-245 602 0 
-239 -632 246 0 
-246 239 0 
-246 632 0 
-276 -642 247 0 
-247 276 0 
-247 642 0 
244 245 246 247 239 -248 0 
-34 -598 35 0 
-35 34 0 
-35 598 0 
-34 -603 36 0 
-36 34 0 
-36 603 0 
-34 -638 37 0 
-37 34 0 
-37 638 0 
-34 -643 38 0 
-38 34 0 
-38 643 0 
35 36 37 38 -34 249 0 
-25 -593 39 0 
-39 25 0 
-39 593 0 
-34 -603 40 0 
-40 34 0 
-40 603 0 
-25 -633 41 0 
-41 25 0 
-41 633 0 
-34 -643 42 0 
-42 34 0 
-42 643 0 
39 40 41 42 34 -249 0 
-249 -599 250 0 
-250 249 0 
-250 599 0 
-249 -604 251 0 
-251 249 0 
-251 604 0 
-249 -639 252 0 
-252 249 0 
-252 639 0 
-249 -644 253 0 
-253 249 0 
-253 644 0 
250 251 252 253 -249 258 0 
-212 -594 254 0 
-254 212 0 
-254 594 0 
-249 -604 255 0 
-255 249 0 
-255 604 0 
-212 -634 256 0 
-256 212 0 
-256 634 0 
-249 -644 257 0 
-257 249 0 
-257 644 0 
254 255 256 257 249 -258 0 
-258 -600 259 0 
-259 258 0 
-259 600 0 
-258 -605 260 0 
-260 258 0 
-260 605 0 
-258 -640 261 0 
-261 258 0 
-261 640 0 
-258 -645 262 0 
-262 258 0 
-262 645 0 
259 260 261 262 -258 267 0 
-221 -595 263 0 
-263 221 0 
-263 595 0 
-258 -605 264 0 
-264 258 0 
-264 605 0 
-221 -635 265 0 
-265 221 0 
-265 635 0 
-258 -645 266 0 
-266 258 0 
-266 645 0 
263 264 265 266 258 -267 0 
-267 -601 268 0 
-268 267 0 
-268 601 0 
-267 -606 269 0 
-269 267 0 
-269 606 0 
-267 -641 270 0 
-270 267 0 
-270 641 0 
-267 -646 271 0 
-271 267 0 
-271 646 0 
268 269 270 271 -267 276 0 
-230 -596 272 0 
-272 230 0 
-272 596 0 
-267 -606 273 0 
-273 267 0 
-273 606 0 
-230 -636 274 0 
-274 230 0 
-274 636 0 
-267 -646 275 0 
-275 267 0 
-275 646 0 
272 273 274 275 267 -276 0 
-276 -602 277 0 
-277 276 0 
-277 602 0 
-276 -607 278 0 
-278 276 0 
-278 607 0 
-276 -642 279 0 
-279 276 0 
-279 642 0 
-276 -647 280 0 
-280 276 0 
-280 647 0 
277 278 279 280 -276 285 0 
-239 -597 281 0 
-281 239 0 
-281 597 0 
-276 -607 282 0 
-282 276 0 
-282 607 0 
-239 -637 283 0 
-283 239 0 
-283 637 0 
-276 -647 284 0 
-284 276 0 
-284 647 0 
281 282 283 284 276 -285 0 
-7 -648 43 0 
-43 7 0 
-43 648 0 
-25 -668 44 0 
-44 25 0 
-44 668 0 
43 44 286 0 
-7 -688 45 0 
-45 7 0 
-45 688 0 
-25 -708 46 0 
-46 25 0 
-46 708 0 
-138 -649 287 0 
-287 138 0 
-287 649 0 
-212 -669 288 0 
-288 212 0 
-288 669 0 
287 288 -286 291 0 
-138 -689 289 0 
-289 138 0 
-289 689 0 
-212 -709 290 0 
-290 212 0 
-290 709 0 
289 290 286 -291 0 
-147 -650 292 0 
-292 147 0 
-292 650 0 
-221 -670 293 0 
-293 221 0 
-293 670 0 
292 293 -291 296 0 
-147 -690 294 0 
-294 147 0 
-294 690 0 
-221 -710 295 0 
-295 221 0 
-295 710 0 
294 295 291 -296 0 
-156 -651 297 0 
-297 156 0 
-297 651 0 
-230 -671 298 0 
-298 230 0 
-298 671 0 
297 298 -296 301 0 
-156 -691 299 0 
-299 156 0 
-299 691 0 
-230 -711 300 0 
-300 230 0 
-300 711 0 
299 300 296 -301 0 
-165 -652 302 0 
-302 165 0 
-302 652 0 
-239 -672 303 0 
-303 239 0 
-303 672 0 
302 303 -301 306 0 
-165 -692 304 0 
-304 165 0 
-304 692 0 
-239 -712 305 0 
-305 239 0 
-305 712 0 
304 305 301 -306 0 
-7 -653 48 0 
-48 7 0 
-48 653 0 
-25 -673 49 0 
-49 25 0 
-49 673 0 
48 49 -47 307 0 
-7 -693 50 0 
-50 7 0 
-50 693 0 
-25 -713 51 0 
-51 25 0 
-51 713 0 
50 51 47 -307 0 
-138 -654 308 0 
-308 138 0 
-308 654 0 
-212 -674 309 0 
-309 212 0 
-309 674 0 
308 309 -307 312 0 
-138 -694 310 0 
-310 138 0 
-310 694 0 
-212 -714 311 0 
-311 212 0 
-311 714 0 
310 311 307 -312 0 
-147 -655 313 0 
-313 147 0 
-313 655 0 
-221 -675 314 0 
-314 221 0 
-314 675 0 
313 314 -312 317 0 
-147 -695 315 0 
-315 147 0 
-315 695 0 
-221 -715 316 0 
-316 221 0 
-316 715 0 
315 316 312 -317 0 
-156 -656 318 0 
-318 156 0 
-318 656 0 
-230 -676 319 0 
-319 230 0 
-319 676 0 
318 319 -317 322 0 
-156 -696 320 0 
-320 156 0 
-320 696 0 
-230 -716 321 0 
-321 230 0 
-321 716 0 
320 321 317 -322 0 
-165 -657 323 0 
-323 165 0 
-323 657 0 
-239 -677 324 0 
-324 239 0 
-324 677 0 
323 324 -322 327 0 
-165 -697 325 0 
-325 165 0 
-325 697 0 
-239 -717 326 0 
-326 239 0 
-326 717 0 
325 326 322 -327 0 
-16 -658 53 0 
-53 16 0 
-53 658 0 
-34 -678 54 0 
-54 34 0 
-54 678 0 
53 54 -52 328 0 
-16 -698 55 0 
-55 16 0 
-55 698 0 
-34 -718 56 0 
-56 34 0 
-56 718 0 
55 56 52 -328 0 
-175 -659 329 0 
-329 175 0 
-329 659 0 
-249 -679 330 0 
-330 249 0 
-330 679 0 
329 330 -328 333 0 
-175 -699 331 0 
-331 175 0 
-331 699 0 
-249 -719 332 0 
-332 249 0 
-332 719 0 
331 332 328 -333 0 
-184 -660 334 0 
-334 184 0 
-334 660 0 
-258 -680 335 0 
-335 258 0 
-335 680 0 
334 335 -333 338 0 
-184 -700 336 0 
-336 184 0 
-336 700 0 
-258 -720 337 0 
-337 258 0 
-337 720 0 
336 337 333 -338 0 
-193 -661 339 0 
-339 193 0 
-339 661 0 
-267 -681 340 0 
-340 267 0 
-340 681 0 
339 340 -338 343 0 
-193 -701 341 0 
-341 193 0 
-341 701 0 
-267 -721 342 0 
-342 267 0 
-342 721 0 
341 342 338 -343 0 
-202 -662 344 0 
-344 202 0 
-344 662 0 
-276 -682 345 0 
-345 276 0 
-345 682 0 
344 345 -343 348 0 
-202 -702 346 0 
-346 202 0 
-346 702 0 
-276 -722 347 0 
-347 276 0 
-347 722 0 
346 347 343 -348 0 
-16 -663 58 0 
-58 16 0 
-58 663 0 
-34 -683 59 0 
-59 34 0 
-59 683 0 
58 59 -57 349 0 
-16 -703 60 0 
-60 16 0 
-60 703 0 
-34 -723 61 0 
-61 34 0 
-61 723 0 
60 61 57 -349 0 
-175 -664 350 0 
-350 175 0 
-350 664 0 
-249 -684 351 0 
-351 249 0 
-351 684 0 
350 351 -349 354 0 
-175 -704 352 0 
-352 175 0 
-352 704 0 
-249 -724 353 0 
-353 249 0 
-353 724 0 
352 353 349 -354 0 
-184 -665 355 0 
-355 184 0 
-355 665 0 
-258 -685 356 0 
-356 258 0 
-356 685 0 
355 356 -354 359 0 
-184 -705 357 0 
-357 184 0 
-357 705 0 
-258 -725 358 0 
-358 258 0 
-358 725 0 
357 358 354 -359 0 
-193 -666 360 0 
-360 193 0 
-360 666 0 
-267 -686 361 0 
-361 267 0 
-361 686 0 
360 361 -359 364 0 
-193 -706 362 0 
-362 193 0 
-362 706 0 
-267 -726 363 0 
-363 267 0 
-363 726 0 
362 363 359 -364 0 
-202 -667 365 0 
-365 202 0 
-365 667 0 
-276 -687 366 0 
-366 276 0 
-366 687 0 
365 366 -364 369 0 
-202 -707 367 0 
-367 202 0 
-367 707 0 
-276 -727 368 0 
-368 276 0 
-368 727 0 
367 368 364 -369 0 
-62 370 0 
62 -370 0 
-370 371 0 
370 -371 0 
-371 372 0 
371 -372 0 
-372 373 0 
372 -373 0 
-373 374 0 
373 -374 0 
-63 375 0 
63 -375 0 
-375 376 0 
375 -376 0 
-376 377 0 
376 -377 0 
-377 378 0 
377 -378 0 
-378 379 0 
378 -379 0 
-7 -688 65 0 
-65 7 0 
-65 688 0 
-7 -693 66 0 
-66 7 0 
-66 693 0 
-16 -698 67 0 
-67 16 0 
-67 698 0 
-16 -703 68 0 
-68 16 0 
-68 703 0 
65 66 67 68 -64 380 0 
-7 -648 69 0 
-69 7 0 
-69 648 0 
-7 -653 70 0 
-70 7 0 
-70 653 0 
-16 -658 71 0 
-71 16 0 
-71 658 0 
-16 -663 72 0 
-72 16 0 
-72 663 0 
69 70 71 72 64 -380 0 
-138 -689 381 0 
-381 138 0 
-381 689 0 
-138 -694 382 0 
-382 138 0 
-382 694 0 
-175 -699 383 0 
-383 175 0 
-383 699 0 
-175 -704 384 0 
-384 175 0 
-384 704 0 
381 382 383 384 -380 389 0 
-138 -649 385 0 
-385 138 0 
-385 649 0 
-138 -654 386 0 
-386 138 0 
-386 654 0 
-175 -659 387 0 
-387 175 0 
-387 659 0 
-175 -664 388 0 
-388 175 0 
-388 664 0 
385 386 387 388 380 -389 0 
-147 -690 390 0 
-390 147 0 
-390 690 0 
-147 -695 391 0 
-391 147 0 
-391 695 0 
-184 -700 392 0 
-392 184 0 
-392 700 0 
-184 -705 393 0 
-393 184 0 
-393 705 0 
390 391 392 393 -389 398 0 
-147 -650 394 0 
-394 147 0 
-394 650 0 
-147 -655 395 0 
-395 147 0 
-395 655 0 
-184 -660 396 0 
-396 184 0 
-396 660 0 
-184 -665 397 0 
-397 184 0 
-397 665 0 
394 395 396 397 389 -398 0 
-156 -691 399 0 
-399 156 0 
-399 691 0 
-156 -696 400 0 
-400 156 0 
-400 696 0 
-193 -701 401 0 
-401 193 0 
-401 701 0 
-193 -706 402 0 
-402 193 0 
-402 706 0 
399 400 401 402 -398 407 0 
-156 -651 403 0 
-403 156 0 
-403 651 0 
-156 -656 404 0 
-404 156 0 
-404 656 0 
-193 -661 405 0 
-405 193 0 
-405 661 0 
-193 -666 406 0 
-406 193 0 
-406 666 0 
403 404 405 406 398 -407 0 
-165 -692 408 0 
-408 165 0 
-408 692 0 
-165 -697 409 0 
-409 165 0 
-409 697 0 
-202 -702 410 0 
-410 202 0 
-410 702 0 
-202 -707 411 0 
-411 202 0 
-411 707 0 
408 409 410 411 -407 416 0 
-165 -652 412 0 
-412 165 0 
-412 652 0 
-165 -657 413 0 
-413 165 0 
-413 657 0 
-202 -662 414 0 
-414 202 0 
-414 662 0 
-202 -667 415 0 
-415 202 0 
-415 667 0 
412 413 414 415 407 -416 0 
-25 -708 74 0 
-74 25 0 
-74 708 0 
-25 -713 75 0 
-75 25 0 
-75 713 0 
-34 -718 76 0 
-76 34 0 
-76 718 0 
-34 -723 77 0 
-77 34 0 
-77 723 0 
74 75 76 77 -73 417 0 
-25 -668 78 0 
-78 25 0 
-78 668 0 
-25 -673 79 0 
-79 25 0 
-79 673 0 
-34 -678 80 0 
-80 34 0 
-80 678 0 
-34 -683 81 0 
-81 34 0 
-81 683 0 
78 79 80 81 73 -417 0 
-212 -709 418 0 
-418 212 0 
-418 709 0 
-212 -714 419 0 
-419 212 0 
-419 714 0 
-249 -719 420 0 
-420 249 0 
-420 719 0 
-249 -724 421 0 
-421 249 0 
-421 724 0 
418 419 420 421 -417 426 0 
-212 -669 422 0 
-422 212 0 
-422 669 0 
-212 -674 423 0 
-423 212 0 
-423 674 0 
-249 -679 424 0 
-424 249 0 
-424 679 0 
-249 -684 425 0 
-425 249 0 
-425 684 0 
422 423 424 425 417 -426 0 
-221 -710 427 0 
-427 221 0 
-427 710 0 
-221 -715 428 0 
-428 221 0 
-428 715 0 
-258 -720 429 0 
-429 258 0 
-429 720 0 
-258 -725 430 0 
-430 258 0 
-430 725 0 
427 428 429 430 -426 435 0 
-221 -670 431 0 
-431 221 0 
-431 670 0 
-221 -675 432 0 
-432 221 0 
-432 675 0 
-258 -680 433 0 
-433 258 0 
-433 680 0 
-258 -685 434 0 
-434 258 0 
-434 685 0 
431 432 433 434 426 -435 0 
-230 -711 436 0 
-436 230 0 
-436 711 0 
-230 -716 437 0 
-437 230 0 
-437 716 0 
-267 -721 438 0 
-438 267 0 
-438 721 0 
-267 -726 439 0 
-439 267 0 
-439 726 0 
436 437 438 439 -435 444 0 
-230 -671 440 0 
-440 230 0 
-440 671 0 
-230 -676 441 0 
-441 230 0 
-441 676 0 
-267 -681 442 0 
-442 267 0 
-442 681 0 
-267 -686 443 0 
-443 267 0 
-443 686 0 
440 441 442 443 435 -444 0 
-239 -712 445 0 
-445 239 0 
-445 712 0 
-239 -717 446 0 
-446 239 0 
-446 717 0 
-276 -722 447 0 
-447 276 0 
-447 722 0 
-276 -727 448 0 
-448 276 0 
-448 727 0 
445 446 447 448 -444 453 0 
-239 -672 449 0 
-449 239 0 
-449 672 0 
-239 -677 450 0 
-450 239 0 
-450 677 0 
-276 -682 451 0 
-451 276 0 
-451 682 0 
-276 -687 452 0 
-452 276 0 
-452 687 0 
449 450 451 452 444 -453 0 
-82 -728 83 0 
-83 82 0 
-83 728 0 
83 -82 454 0 
82 -454 0 
-454 -729 455 0 
-455 454 0 
-455 729 0 
455 -454 456 0 
454 -456 0 
-456 -730 457 0 
-457 456 0 
-457 730 0 
457 -456 458 0 
456 -458 0 
-458 -731 459 0 
-459 458 0 
-459 731 0 
459 -458 460 0 
458 -460 0 
-460 -732 461 0 
-461 460 0 
-461 732 0 
461 -460 462 0 
460 -462 0 
-84 -733 85 0 
-85 84 0 
-85 733 0 
85 -84 463 0 
84 -463 0 
-463 -734 464 0 
-464 463 0 
-464 734 0 
464 -463 465 0 
463 -465 0 
-465 -735 466 0 
-466 465 0 
-466 735 0 
466 -465 467 0 
465 -467 0 
-467 -736 468 0 
-468 467 0 
-468 736 0 
468 -467 469 0 
467 -469 0 
-469 -737 470 0 
-470 469 0 
-470 737 0 
470 -469 471 0 
469 -471 0 
-86 -738 87 0 
-87 86 0 
-87 738 0 
87 -86 472 0 
86 -472 0 
-472 -739 473 0 
-473 472 0 
-473 739 0 
473 -472 474 0 
472 -474 0 
-474 -740 475 0 
-475 474 0 
-475 740 0 
475 -474 476 0 
474 -476 0 
-476 -741 477 0 
-477 476 0 
-477 741 0 
477 -476 478 0 
476 -478 0 
-478 -742 479 0 
-479 478 0 
-479 742 0 
479 -478 480 0 
478 -480 0 
-88 -743 89 0 
-89 88 0 
-89 743 0 
89 -88 481 0 
88 -481 0 
-481 -744 482 0 
-482 481 0 
-482 744 0 
482 -481 483 0 
481 -483 0 
-483 -745 484 0 
-484 483 0 
-484 745 0 
484 -483 485 0 
483 -485 0 
-485 -746 486 0 
-486 485 0 
-486 746 0 
486 -485 487 0 
485 -487 0 
-487 -747 488 0 
-488 487 0 
-488 747 0 
488 -487 489 0 
487 -489 0 
-90 -748 91 0 
-91 90 0 
-91 748 0 
91 -90 490 0 
90 -490 0 
-490 -749 491 0 
-491 490 0 
-491 749 0 
491 -490 492 0 
490 -492 0 
-492 -750 493 0 
-493 492 0 
-493 750 0 
493 -492 494 0 
492 -494 0 
-494 -751 495 0 
-495 494 0 
-495 751 0 
495 -494 496 0 
494 -496 0 
-496 -752 497 0 
-497 496 0 
-497 752 0 
497 -496 498 0 
496 -498 0 
-92 -753 93 0 
-93 92 0 
-93 753 0 
93 -92 499 0 
92 -499 0 
-499 -754 500 0 
-500 499 0 
-500 754 0 
500 -499 501 0 
499 -501 0 
-501 -755 502 0 
-502 501 0 
-502 755 0 
502 -501 503 0 
501 -503 0 
-503 -756 504 0 
-504 503 0 
-504 756 0 
504 -503 505 0 
503 -505 0 
-505 -757 506 0 
-506 505 0 
-506 757 0 
506 -505 507 0 
505 -507 0 
-94 -758 95 0 
-95 94 0 
-95 758 0 
95 -94 508 0 
94 -508 0 
-508 -759 509 0 
-509 508 0 
-509 759 0 
509 -508 510 0 
508 -510 0 
-510 -760 511 0 
-511 510 0 
-511 760 0 
511 -510 512 0 
510 -512 0 
-512 -761 513 0 
-513 512 0 
-513 761 0 
513 -512 514 0 
512 -514 0 
-514 -762 515 0 
-515 514 0 
-515 762 0 
515 -514 516 0 
514 -516 0 
-96 -763 97 0 
-97 96 0 
-97 763 0 
97 -96 517 0 
96 -517 0 
-517 -764 518 0 
-518 517 0 
-518 764 0 
518 -517 519 0 
517 -519 0 
-519 -765 520 0 
-520 519 0 
-520 765 0 
520 -519 521 0 
519 -521 0 
-521 -766 522 0 
-522 521 0 
-522 766 0 
522 -521 523 0 
521 -523 0 
-523 -767 524 0 
-524 523 0 
-524 767 0 
524 -523 525 0 
523 -525 0 
-98 526 0 
-82 -728 99 0 
-99 82 0 
-99 728 0 
-84 -733 100 0 
-100 84 0 
-100 733 0 
-86 -738 101 0 
-101 86 0 
-101 738 0 
-88 -743 102 0 
-102 88 0 
-102 743 0 
99 100 101 102 98 -526 0 
-526 531 0 
-454 -729 527 0 
-527 454 0 
-527 729 0 
-463 -734 528 0 
-528 463 0 
-528 734 0 
-472 -739 529 0 
-529 472 0 
-529 739 0 
-481 -744 530 0 
-530 481 0 
-530 744 0 
527 528 529 530 526 -531 0 
-531 536 0 
-456 -730 532 0 
-532 456 0 
-532 730 0 
-465 -735 533 0 
-533 465 0 
-533 735 0 
-474 -740 534 0 
-534 474 0 
-534 740 0 
-483 -745 535 0 
-535 483 0 
-535 745 0 
532 533 534 535 531 -536 0 
-536 541 0 
-458 -731 537 0 
-537 458 0 
-537 731 0 
-467 -736 538 0 
-538 467 0 
-538 736 0 
-476 -741 539 0 
-539 476 0 
-539 741 0 
-485 -746 540 0 
-540 485 0 
-540 746 0 
537 538 539 540 536 -541 0 
-541 546 0 
-460 -732 542 0 
-542 460 0 
-542 732 0 
-469 -737 543 0 
-543 469 0 
-543 737 0 
-478 -742 544 0 
-544 478 0 
-544 742 0 
-487 -747 545 0 
-545 487 0 
-545 747 0 
542 543 544 545 541 -546 0 
-103 547 0 
-90 -748 104 0 
-104 90 0 
-104 748 0 
-92 -753 105 0 
-105 92 0 
-105 753 0 
-94 -758 106 0 
-106 94 0 
-106 758 0 
-96 -763 107 0 
-107 96 0 
-107 763 0 
104 105 106 107 103 -547 0 
-547 552 0 
-490 -749 548 0 
-548 490 0 
-548 749 0 
-499 -754 549 0 
-549 499 0 
-549 754 0 
-508 -759 550 0 
-550 508 0 
-550 759 0 
-517 -764 551 0 
-551 517 0 
-551 764 0 
548 549 550 551 547 -552 0 
-552 557 0 
-492 -750 553 0 
-553 492 0 
-553 750 0 
-501 -755 554 0 
-554 501 0 
-554 755 0 
-510 -760 555 0 
-555 510 0 
-555 760 0 
-519 -765 556 0 
-556 519 0 
-556 765 0 
553 554 555 556 552 -557 0 
-557 562 0 
-494 -751 558 0 
-558 494 0 
-558 751 0 
-503 -756 559 0 
-559 503 0 
-559 756 0 
-512 -761 560 0 
-560 512 0 
-560 761 0 
-521 -766 561 0 
-561 521 0 
-561 766 0 
558 559 560 561 557 -562 0 
-562 567 0 
-496 -752 563 0 
-563 496 0 
-563 752 0 
-505 -757 564 0 
-564 505 0 
-564 757 0 
-514 -762 565 0 
-565 514 0 
-565 762 0 
-523 -767 566 0 
-566 523 0 
-566 767 0 
563 564 565 566 562 -567 0 
-568 -573 0 
-568 -578 0 
-568 -608 0 
-568 -613 0 
-568 -618 0 
-569 -574 0 
-569 -579 0 
-569 -609 0 
-569 -614 0 
-569 -619 0 
-570 -575 0 
-570 -580 0 
-570 -610 0 
-570 -615 0 
-570 -620 0 
-571 -576 0 
-571 -581 0 
-571 -611 0 
-571 -616 0 
-571 -621 0 
-572 -577 0 
-572 -582 0 
-572 -612 0 
-572 -617 0 
-572 -622 0 
-573 -578 0 
-573 -583 0 
-573 -608 0 
-573 -618 0 
-573 -623 0 
-574 -579 0 
-574 -584 0 
-574 -609 0 
-574 -619 0 
-574 -624 0 
-575 -580 0 
-575 -585 0 
-575 -610 0 
-575 -620 0 
-575 -625 0 
-576 -581 0 
-576 -586 0 
-576 -611 0 
-576 -621 0 
-576 -626 0 
-577 -582 0 
-577 -587 0 
-577 -612 0 
-577 -622 0 
-577 -627 0 
-578 -583 0 
-578 -608 0 
-578 -613 0 
-578 -623 0 
-579 -584 0 
-579 -609 0 
-579 -614 0 
-579 -624 0 
-580 -585 0 
-580 -610 0 
-580 -615 0 
-580 -625 0 
-581 -586 0 
-581 -611 0 
-581 -616 0 
-581 -626 0 
-582 -587 0 
-582 -612 0 
-582 -617 0 
-582 -627 0 
-583 -613 0 
-583 -618 0 
-583 -623 0 
-584 -614 0 
-584 -619 0 
-584 -624 0 
-585 -615 0 
-585 -620 0 
-585 -625 0 
-586 -616 0 
-586 -621 0 
-586 -626 0 
-587 -617 0 
-587 -622 0 
-587 -627 0 
-588 -593 0 
-588 -598 0 
-588 -628 0 
-588 -633 0 
-588 -638 0 
-589 -594 0 
-589 -599 0 
-589 -629 0 
-589 -634 0 
-589 -639 0 
-590 -595 0 
-590 -600 0 
-590 -630 0 
-590 -635 0 
-590 -640 0 
-591 -596 0 
-591 -601 0 
-591 -631 0 
-591 -636 0 
-591 -641 0 
-592 -597 0 
-592 -602 0 
-592 -632 0 
-592 -637 0 
-592 -642 0 
-593 -598 0 
-593 -603 0 
-593 -628 0 
-593 -638 0 
-593 -643 0 
-594 -599 0 
-594 -604 0 
-594 -629 0 
-594 -639 0 
-594 -644 0 
-595 -600 0 
-595 -605 0 
-595 -630 0 
-595 -640 0 
-595 -645 0 
-596 -601 0 
-596 -606 0 
-596 -631 0 
-596 -641 0 
-596 -646 0 
-597 -602 0 
-597 -607 0 
-597 -632 0 
-597 -642 0 
-597 -647 0 
-598 -603 0 
-598 -628 0 
-598 -633 0 
-598 -643 0 
-599 -604 0 
-599 -629 0 
-599 -634 0 
-599 -644 0 
-600 -605 0 
-600 -630 0 
-600 -635 0 
-600 -645 0 
-601 -606 0 
-601 -631 0 
-601 -636 0 
-601 -646 0 
-602 -607 0 
-602 -632 0 
-602 -637 0 
-602 -647 0 
-603 -633 0 
-603 -638 0 
-603 -643 0 
-604 -634 0 
-604 -639 0 
-604 -644 0 
-605 -635 0 
-605 -640 0 
-605 -645 0 
-606 -636 0 
-606 -641 0 
-606 -646 0 
-607 -637 0 
-607 -642 0 
-607 -647 0 
-608 -613 0 
-608 -618 0 
-609 -614 0 
-609 -619 0 
-610 -615 0 
-610 -620 0 
-611 -616 0 
-611 -621 0 
-612 -617 0 
-612 -622 0 
-613 -618 0 
-613 -623 0 
-614 -619 0 
-614 -624 0 
-615 -620 0 
-615 -625 0 
-616 -621 0 
-616 -626 0 
-617 -622 0 
-617 -627 0 
-618 -623 0 
-619 -624 0 
-620 -625 0 
-621 -626 0 
-622 -627 0 
-628 -633 0 
-628 -638 0 
-629 -634 0 
-629 -639 0 
-630 -635 0 
-630 -640 0 
-631 -636 0 
-631 -641 0 
-632 -637 0 
-632 -642 0 
-633 -638 0 
-633 -643 0 
-634 -639 0 
-634 -644 0 
-635 -640 0 
-635 -645 0 
-636 -641 0 
-636 -646 0 
-637 -642 0 
-637 -647 0 
-638 -643 0 
-639 -644 0 
-640 -645 0 
-641 -646 0 
-642 -647 0 
-648 -688 0 
-648 -693 0 
-648 -698 0 
-648 -703 0 
-648 -708 0 
-649 -689 0 
-649 -694 0 
-649 -699 0 
-649 -704 0 
-649 -709 0 
-650 -690 0 
-650 -695 0 
-650 -700 0 
-650 -705 0 
-650 -710 0 
-651 -691 0 
-651 -696 0 
-651 -701 0 
-651 -706 0 
-651 -711 0 
-652 -692 0 
-652 -697 0 
-652 -702 0 
-652 -707 0 
-652 -712 0 
-653 -688 0 
-653 -693 0 
-653 -698 0 
-653 -703 0 
-653 -713 0 
-654 -689 0 
-654 -694 0 
-654 -699 0 
-654 -704 0 
-654 -714 0 
-655 -690 0 
-655 -695 0 
-655 -700 0 
-655 -705 0 
-655 -715 0 
-656 -691 0 
-656 -696 0 
-656 -701 0 
-656 -706 0 
-656 -716 0 
-657 -692 0 
-657 -697 0 
-657 -702 0 
-657 -707 0 
-657 -717 0 
-658 -688 0 
-658 -693 0 
-658 -698 0 
-658 -703 0 
-658 -718 0 
-659 -689 0 
-659 -694 0 
-659 -699 0 
-659 -704 0 
-659 -719 0 
-660 -690 0 
-660 -695 0 
-660 -700 0 
-660 -705 0 
-660 -720 0 
-661 -691 0 
-661 -696 0 
-661 -701 0 
-661 -706 0 
-661 -721 0 
-662 -692 0 
-662 -697 0 
-662 -702 0 
-662 -707 0 
-662 -722 0 
-663 -688 0 
-663 -693 0 
-663 -698 0 
-663 -703 0 
-663 -723 0 
-664 -689 0 
-664 -694 0 
-664 -699 0 
-664 -704 0 
-664 -724 0 
-665 -690 0 
-665 -695 0 
-665 -700 0 
-665 -705 0 
-665 -725 0 
-666 -691 0 
-666 -696 0 
-666 -701 0 
-666 -706 0 
-666 -726 0 
-667 -692 0 
-667 -697 0 
-667 -702 0 
-667 -707 0 
-667 -727 0 
-668 -688 0 
-668 -708 0 
-668 -713 0 
-668 -718 0 
-668 -723 0 
-669 -689 0 
-669 -709 0 
-669 -714 0 
-669 -719 0 
-669 -724 0 
-670 -690 0 
-670 -710 0 
-670 -715 0 
-670 -720 0 
-670 -725 0 
-671 -691 0 
-671 -711 0 
-671 -716 0 
-671 -721 0 
-671 -726 0 
-672 -692 0 
-672 -712 0 
-672 -717 0 
-672 -722 0 
-672 -727 0 
-673 -693 0 
-673 -708 0 
-673 -713 0 
-673 -718 0 
-673 -723 0 
-674 -694 0 
-674 -709 0 
-674 -714 0 
-674 -719 0 
-674 -724 0 
-675 -695 0 
-675 -710 0 
-675 -715 0 
-675 -720 0 
-675 -725 0 
-676 -696 0 
-676 -711 0 
-676 -716 0 
-676 -721 0 
-676 -726 0 
-677 -697 0 
-677 -712 0 
-677 -717 0 
-677 -722 0 
-677 -727 0 
-678 -698 0 
-678 -708 0 
-678 -713 0 
-678 -718 0 
-678 -723 0 
-679 -699 0 
-679 -709 0 
-679 -714 0 
-679 -719 0 
-679 -724 0 
-680 -700 0 
-680 -710 0 
-680 -715 0 
-680 -720 0 
-680 -725 0 
-681 -701 0 
-681 -711 0 
-681 -716 0 
-681 -721 0 
-681 -726 0 
-682 -702 0 
-682 -712 0 
-682 -717 0 
-682 -722 0 
-682 -727 0 
-683 -703 0 
-683 -708 0 
-683 -713 0 
-683 -718 0 
-683 -723 0 
-684 -704 0 
-684 -709 0 
-684 -714 0 
-684 -719 0 
-684 -724 0 
-685 -705 0 
-685 -710 0 
-685 -715 0 
-685 -720 0 
-685 -725 0 
-686 -706 0 
-686 -711 0 
-686 -716 0 
-686 -721 0 
-686 -726 0 
-687 -707 0 
-687 -712 0 
-687 -717 0 
-687 -722 0 
-687 -727 0 
